c description: Random 3-CNF over 20 variables and 85 clauses
c generator: CNFgen (0.9.2)
c copyright: (C) 2012-2022 Massimo Lauria <massimo.lauria@uniroma1.it>
c url: https://massimolauria.net/cnfgen
c command line: cnfgen --output CNF_4.28/20_bit_85_597.cnf randkcnf 3 20 85
c
p cnf 20 85
13 15 -18 0
-6 -15 16 0
10 -13 -18 0
-1 3 7 0
-2 -16 19 0
13 18 -19 0
-1 2 -9 0
9 11 -18 0
5 -14 17 0
3 -5 8 0
-6 10 19 0
1 15 -17 0
3 -8 -14 0
-10 13 18 0
1 3 6 0
-5 -9 -19 0
-1 8 17 0
8 12 20 0
-8 -15 -20 0
-8 -17 -20 0
3 13 16 0
2 10 -15 0
-3 -6 -8 0
-5 -10 12 0
-15 19 20 0
8 -18 -19 0
-2 9 -17 0
-6 8 11 0
-2 13 -14 0
3 16 20 0
-1 -8 -14 0
-8 -9 13 0
2 5 -20 0
2 -8 -18 0
3 5 -18 0
-2 -10 -20 0
-3 5 10 0
-2 11 18 0
6 -7 -9 0
-5 9 -17 0
4 -7 -13 0
4 6 -14 0
5 -16 -19 0
8 -13 17 0
5 11 20 0
-2 8 -17 0
2 -9 19 0
1 -5 7 0
9 -12 17 0
-1 15 -18 0
3 -10 16 0
1 8 16 0
4 -11 -13 0
13 -14 -18 0
-9 -15 17 0
-5 -14 -18 0
3 -5 12 0
-2 -7 15 0
5 7 15 0
-4 -11 14 0
-10 14 -19 0
6 16 17 0
-3 -14 -20 0
10 -12 15 0
-2 12 18 0
-9 -13 14 0
-2 4 7 0
4 -11 17 0
-12 14 -18 0
6 -12 -13 0
8 -9 -11 0
-4 -10 -11 0
-12 -14 18 0
-14 15 17 0
-12 -16 17 0
-1 4 6 0
8 -9 15 0
1 -5 17 0
-8 17 -20 0
-6 -15 -20 0
4 -7 -12 0
8 -15 -16 0
-10 14 19 0
17 -18 20 0
-8 13 -18 0
